data/solutions/recovery/degenerate/moderate/binding/degenerate_moderate_instance4/25.sol
Elapsed time: 0.1
Upper bound: 6188708.0
Planning weighted value: 30798399.0
C[0]=6188708.0
C[1]=6144114.0
C[2]=0.0
y[0]=1
y[1]=0
y[2]=0
y[3]=0
y[4]=0
y[5]=0
y[6]=1
y[7]=0
y[8]=1
y[9]=1
y[10]=0
y[11]=1
y[12]=1
y[13]=0
y[14]=0
y[15]=1
y[16]=1
y[17]=0
y[18]=0
y[19]=1
y[20]=0
y[21]=1
y[22]=0
y[23]=1
y[24]=0
