data/solutions/recovery/degenerate/moderate/binding/degenerate_moderate_instance4/25.log

Log started (V12.6.3.0) Fri Apr 20 23:04:14 2018

New value for default parallel thread count: 1

Problem '/tmp/tmpAII23V.pyomo.lp' read.
Read time = 0.00 sec. (0.02 ticks)

Problem name         : /tmp/tmpAII23V.pyomo.lp
Objective sense      : Minimize
Variables            :      80  [Nneg: 1,  Binary: 75,  General Integer: 4]
Objective nonzeros   :       1
Linear constraints   :      58  [Less: 28,  Equal: 30]
  Nonzeros           :    1176
  RHS nonzeros       :      26

Variables            : Min LB: 0.000000         Max UB: 1.000000       
Objective nonzeros   : Min   : 1.000000         Max   : 1.000000       
Linear constraints   :
  Nonzeros           : Min   : 1.000000         Max   : 1072398.       
  RHS nonzeros       : Min   : 1.000000         Max   : 1.000000       
Tried aggregator 2 times.
MIP Presolve eliminated 50 rows and 69 columns.
Aggregator did 6 substitutions.
Reduced MIP has 2 rows, 5 columns, and 10 nonzeros.
Reduced MIP has 4 binaries, 1 generals, 0 SOSs, and 0 indicators.
Presolve time = 0.00 sec. (0.12 ticks)
Found incumbent of value 7652400.000000 after 0.00 sec. (0.16 ticks)
Probing fixed 0 vars, tightened 1 bounds.
Probing time = 0.00 sec. (0.00 ticks)
Tried aggregator 1 time.
MIP Presolve modified 2 coefficients.
Reduced MIP has 2 rows, 5 columns, and 10 nonzeros.
Reduced MIP has 4 binaries, 1 generals, 0 SOSs, and 0 indicators.
Presolve time = 0.00 sec. (0.01 ticks)
Probing fixed 0 vars, tightened 1 bounds.
Probing time = 0.00 sec. (0.00 ticks)
MIP emphasis: balance optimality and feasibility.
MIP search method: dynamic search.
Parallel mode: none, using 1 thread.
Root relaxation solution time = 0.00 sec. (0.01 ticks)

        Nodes                                         Cuts/
   Node  Left     Objective  IInf  Best Integer    Best Bound    ItCnt     Gap

*     0+    0                      7652400.0000  5459740.0000            28.65%
      0     0  6167705.1604     2  7652400.0000  6167705.1604        3   19.40%
*     0+    0                      6208581.0000  6167705.1604             0.66%
*     0     0      integral     0  6188708.0000       Cuts: 2        4    0.00%
      0     0        cutoff        6188708.0000  6188708.0000        4    0.00%
Elapsed time = 0.00 sec. (0.21 ticks, tree = 0.01 MB, solutions = 3)

Gomory fractional cuts applied:  1

Root node processing (before b&c):
  Real time             =    0.00 sec. (0.21 ticks)
Sequential b&c:
  Real time             =    0.00 sec. (0.00 ticks)
                          ------------
Total (root+branch&cut) =    0.00 sec. (0.21 ticks)

Solution pool: 3 solutions saved.

MIP - Integer optimal solution:  Objective =  6.1887080000e+06
Solution time =    0.00 sec.  Iterations = 4  Nodes = 0
Deterministic time = 0.21 ticks  (120.23 ticks/sec)


Incumbent solution written to file '/tmp/tmp5kVNX8.cplex.sol'.
